(set-info :smt-lib-version 2.6)
(set-logic QF_LRA)
(set-info :source |
Fully parameterized specification and verification of a synchronizer   
circuit modeling metastability at various levels of refinement.     
A paper describing this specification, to be published in Designing     
Correct Circuits (DCC), 2006, is available from the authors.            

Geoffrey Brown, Indiana University <geobrown@cs.indiana.edu>
Lee Pike, Galois Connections, Inc. <leepike@galois.com>

Translated into CVC format by Leonardo de Moura.

This benchmark was automatically translated into SMT-LIB format from
CVC format using CVC Lite

|)
(set-info :category "industrial")
(set-info :status sat)
(declare-fun x_0 () Bool)
(declare-fun x_1 () Bool)
(declare-fun x_2 () Real)
(declare-fun x_3 () Real)
(declare-fun x_4 () Bool)
(declare-fun x_5 () Bool)
(declare-fun x_6 () Real)
(declare-fun x_7 () Real)
(declare-fun x_8 () Bool)
(declare-fun x_9 () Bool)
(declare-fun x_10 () Real)
(declare-fun x_11 () Real)
(declare-fun x_12 () Bool)
(declare-fun x_13 () Bool)
(declare-fun x_14 () Real)
(declare-fun x_15 () Real)
(declare-fun x_16 () Bool)
(declare-fun x_17 () Bool)
(declare-fun x_18 () Real)
(declare-fun x_19 () Real)
(declare-fun x_20 () Bool)
(declare-fun x_21 () Bool)
(declare-fun x_22 () Real)
(declare-fun x_23 () Real)
(declare-fun x_24 () Bool)
(declare-fun x_25 () Bool)
(declare-fun x_26 () Real)
(declare-fun x_27 () Real)
(declare-fun x_28 () Bool)
(declare-fun x_29 () Bool)
(declare-fun x_30 () Real)
(declare-fun x_31 () Real)
(declare-fun x_32 () Bool)
(declare-fun x_33 () Bool)
(declare-fun x_34 () Real)
(declare-fun x_35 () Real)
(declare-fun x_36 () Bool)
(declare-fun x_37 () Bool)
(declare-fun x_38 () Real)
(declare-fun x_39 () Real)
(declare-fun x_40 () Bool)
(declare-fun x_41 () Bool)
(declare-fun x_42 () Real)
(declare-fun x_43 () Real)
(declare-fun x_44 () Bool)
(declare-fun x_45 () Bool)
(declare-fun x_46 () Bool)
(declare-fun x_47 () Bool)
(declare-fun x_48 () Real)
(declare-fun x_49 () Real)
(declare-fun x_50 () Real)
(declare-fun x_51 () Real)
(declare-fun x_52 () Bool)
(declare-fun x_53 () Bool)
(declare-fun x_54 () Bool)
(declare-fun x_55 () Bool)
(declare-fun x_56 () Real)
(declare-fun x_57 () Real)
(declare-fun x_58 () Real)
(declare-fun x_59 () Real)
(declare-fun x_60 () Bool)
(declare-fun x_61 () Bool)
(declare-fun x_62 () Bool)
(declare-fun x_63 () Bool)
(declare-fun x_64 () Real)
(declare-fun x_65 () Real)
(declare-fun x_66 () Real)
(declare-fun x_67 () Real)
(declare-fun x_68 () Bool)
(declare-fun x_69 () Bool)
(declare-fun x_70 () Bool)
(declare-fun x_71 () Bool)
(declare-fun x_72 () Real)
(declare-fun x_73 () Real)
(declare-fun x_74 () Real)
(declare-fun x_75 () Real)
(declare-fun x_76 () Bool)
(declare-fun x_77 () Bool)
(declare-fun x_78 () Bool)
(declare-fun x_79 () Bool)
(declare-fun x_80 () Real)
(declare-fun x_81 () Real)
(declare-fun x_82 () Real)
(declare-fun x_83 () Real)
(declare-fun x_84 () Bool)
(declare-fun x_85 () Bool)
(declare-fun x_86 () Bool)
(declare-fun x_87 () Bool)
(declare-fun x_88 () Real)
(declare-fun x_89 () Real)
(declare-fun x_90 () Real)
(declare-fun x_91 () Real)
(declare-fun x_92 () Bool)
(declare-fun x_93 () Bool)
(declare-fun x_94 () Bool)
(declare-fun x_95 () Bool)
(declare-fun x_96 () Real)
(declare-fun x_97 () Real)
(declare-fun x_98 () Real)
(declare-fun x_99 () Real)
(declare-fun x_100 () Bool)
(declare-fun x_101 () Bool)
(declare-fun x_102 () Bool)
(declare-fun x_103 () Bool)
(declare-fun x_104 () Real)
(declare-fun x_105 () Real)
(declare-fun x_106 () Real)
(declare-fun x_107 () Real)
(declare-fun x_108 () Bool)
(declare-fun x_109 () Bool)
(declare-fun x_110 () Bool)
(declare-fun x_111 () Bool)
(declare-fun x_112 () Real)
(declare-fun x_113 () Real)
(declare-fun x_114 () Real)
(declare-fun x_115 () Real)
(declare-fun x_116 () Bool)
(declare-fun x_117 () Bool)
(declare-fun x_118 () Bool)
(declare-fun x_119 () Bool)
(declare-fun x_120 () Real)
(declare-fun x_121 () Real)
(declare-fun x_122 () Real)
(declare-fun x_123 () Real)
(declare-fun x_124 () Bool)
(declare-fun x_125 () Bool)
(declare-fun x_126 () Bool)
(declare-fun x_127 () Bool)
(declare-fun x_128 () Real)
(declare-fun x_129 () Real)
(declare-fun x_130 () Real)
(declare-fun x_131 () Real)
(declare-fun x_132 () Bool)
(declare-fun x_133 () Bool)
(declare-fun x_134 () Bool)
(declare-fun x_135 () Bool)
(declare-fun x_136 () Bool)
(declare-fun x_137 () Bool)
(declare-fun x_138 () Real)
(declare-fun x_139 () Real)
(declare-fun x_140 () Real)
(declare-fun x_141 () Real)
(declare-fun x_142 () Real)
(declare-fun x_143 () Real)
(declare-fun x_144 () Real)
(declare-fun x_145 () Real)
(declare-fun x_146 () Real)
(declare-fun x_147 () Real)
(declare-fun x_148 () Real)
(declare-fun x_149 () Real)
(declare-fun x_150 () Real)
(declare-fun x_151 () Real)
(declare-fun x_152 () Real)
(declare-fun x_153 () Real)
(declare-fun x_154 () Real)
(declare-fun x_155 () Real)
(declare-fun x_156 () Real)
(declare-fun x_157 () Real)
(declare-fun x_158 () Real)
(declare-fun x_159 () Real)
(declare-fun x_160 () Real)
(declare-fun x_161 () Real)
(declare-fun x_162 () Real)
(declare-fun x_163 () Real)
(declare-fun x_164 () Real)
(declare-fun x_165 () Real)
(declare-fun x_166 () Real)
(declare-fun x_167 () Real)
(declare-fun x_168 () Real)
(declare-fun x_169 () Real)
(declare-fun x_170 () Real)
(declare-fun x_171 () Real)
(declare-fun x_172 () Real)
(declare-fun x_173 () Real)
(declare-fun x_174 () Real)
(declare-fun x_175 () Real)
(declare-fun x_176 () Real)
(declare-fun x_177 () Real)
(declare-fun x_178 () Real)
(declare-fun x_179 () Real)
(declare-fun x_180 () Real)
(declare-fun x_181 () Real)
(declare-fun x_182 () Real)
(declare-fun x_183 () Real)
(declare-fun x_184 () Real)
(declare-fun x_185 () Real)
(declare-fun x_186 () Real)
(declare-fun x_187 () Real)
(declare-fun x_188 () Real)
(declare-fun x_189 () Real)
(declare-fun x_190 () Real)
(declare-fun x_191 () Real)
(declare-fun x_192 () Real)
(declare-fun x_193 () Real)
(declare-fun x_194 () Real)
(declare-fun x_195 () Real)
(declare-fun x_196 () Real)
(declare-fun x_197 () Real)
(declare-fun x_198 () Real)
(declare-fun x_199 () Real)
(declare-fun x_200 () Real)
(declare-fun x_201 () Real)
(declare-fun x_202 () Real)
(declare-fun x_203 () Real)
(declare-fun x_204 () Real)
(declare-fun x_205 () Real)
(declare-fun x_206 () Real)
(declare-fun x_207 () Real)
(declare-fun x_208 () Real)
(declare-fun x_209 () Real)
(declare-fun x_210 () Real)
(declare-fun x_211 () Real)
(declare-fun x_212 () Real)
(declare-fun x_213 () Real)
(declare-fun x_214 () Real)
(assert (let ((?v_147 (= x_57 x_49)) (?v_148 (= x_50 x_58)) (?v_149 (= x_59 x_51)) (?v_145 (= x_48 x_56))) (let ((?v_150 (not ?v_145)) (?v_153 (= x_142 x_143)) (?v_141 (= x_52 x_44)) (?v_142 (= x_7 x_3)) (?v_146 (ite (<= x_50 x_48) x_50 x_48)) (?v_140 (ite (<= x_48 x_50) x_48 x_50)) (?v_133 (= x_65 x_57)) (?v_134 (= x_58 x_66)) (?v_135 (= x_67 x_59)) (?v_131 (= x_56 x_64))) (let ((?v_136 (not ?v_131)) (?v_139 (= x_153 x_142)) (?v_127 (= x_60 x_52)) (?v_128 (= x_11 x_7)) (?v_132 (ite (<= x_58 x_56) x_58 x_56)) (?v_126 (ite (<= x_56 x_58) x_56 x_58)) (?v_119 (= x_73 x_65)) (?v_120 (= x_66 x_74)) (?v_121 (= x_75 x_67)) (?v_117 (= x_64 x_72))) (let ((?v_122 (not ?v_117)) (?v_125 (= x_159 x_153)) (?v_113 (= x_68 x_60)) (?v_114 (= x_15 x_11)) (?v_118 (ite (<= x_66 x_64) x_66 x_64)) (?v_112 (ite (<= x_64 x_66) x_64 x_66)) (?v_105 (= x_81 x_73)) (?v_106 (= x_74 x_82)) (?v_107 (= x_83 x_75)) (?v_103 (= x_72 x_80))) (let ((?v_108 (not ?v_103)) (?v_111 (= x_165 x_159)) (?v_99 (= x_76 x_68)) (?v_100 (= x_19 x_15)) (?v_104 (ite (<= x_74 x_72) x_74 x_72)) (?v_98 (ite (<= x_72 x_74) x_72 x_74)) (?v_91 (= x_89 x_81)) (?v_92 (= x_82 x_90)) (?v_93 (= x_91 x_83)) (?v_89 (= x_80 x_88))) (let ((?v_94 (not ?v_89)) (?v_97 (= x_171 x_165)) (?v_85 (= x_84 x_76)) (?v_86 (= x_23 x_19)) (?v_90 (ite (<= x_82 x_80) x_82 x_80)) (?v_84 (ite (<= x_80 x_82) x_80 x_82)) (?v_77 (= x_97 x_89)) (?v_78 (= x_90 x_98)) (?v_79 (= x_99 x_91)) (?v_75 (= x_88 x_96))) (let ((?v_80 (not ?v_75)) (?v_83 (= x_177 x_171)) (?v_71 (= x_92 x_84)) (?v_72 (= x_27 x_23)) (?v_76 (ite (<= x_90 x_88) x_90 x_88)) (?v_70 (ite (<= x_88 x_90) x_88 x_90)) (?v_63 (= x_105 x_97)) (?v_64 (= x_98 x_106)) (?v_65 (= x_107 x_99)) (?v_61 (= x_96 x_104))) (let ((?v_66 (not ?v_61)) (?v_69 (= x_183 x_177)) (?v_57 (= x_100 x_92)) (?v_58 (= x_31 x_27)) (?v_62 (ite (<= x_98 x_96) x_98 x_96)) (?v_56 (ite (<= x_96 x_98) x_96 x_98)) (?v_49 (= x_113 x_105)) (?v_50 (= x_106 x_114)) (?v_51 (= x_115 x_107)) (?v_47 (= x_104 x_112))) (let ((?v_52 (not ?v_47)) (?v_55 (= x_189 x_183)) (?v_43 (= x_108 x_100)) (?v_44 (= x_35 x_31)) (?v_48 (ite (<= x_106 x_104) x_106 x_104)) (?v_42 (ite (<= x_104 x_106) x_104 x_106)) (?v_35 (= x_121 x_113)) (?v_36 (= x_114 x_122)) (?v_37 (= x_123 x_115)) (?v_33 (= x_112 x_120))) (let ((?v_38 (not ?v_33)) (?v_41 (= x_195 x_189)) (?v_29 (= x_116 x_108)) (?v_30 (= x_39 x_35)) (?v_34 (ite (<= x_114 x_112) x_114 x_112)) (?v_28 (ite (<= x_112 x_114) x_112 x_114)) (?v_21 (= x_129 x_121)) (?v_22 (= x_122 x_130)) (?v_23 (= x_131 x_123)) (?v_19 (= x_120 x_128))) (let ((?v_24 (not ?v_19)) (?v_27 (= x_201 x_195)) (?v_15 (= x_124 x_116)) (?v_16 (= x_43 x_39)) (?v_20 (ite (<= x_122 x_120) x_122 x_120)) (?v_14 (ite (<= x_120 x_122) x_120 x_122)) (?v_7 (= x_139 x_129)) (?v_8 (= x_130 x_140)) (?v_9 (= x_141 x_131)) (?v_5 (= x_128 x_138))) (let ((?v_10 (not ?v_5)) (?v_13 (= x_207 x_201)) (?v_1 (= x_132 x_124)) (?v_2 (= x_208 x_43)) (?v_6 (ite (<= x_130 x_128) x_130 x_128)) (?v_0 (ite (<= x_128 x_130) x_128 x_130)) (?v_154 (xor x_134 x_135)) (?v_3 (not x_124)) (?v_17 (not x_116)) (?v_31 (not x_108)) (?v_45 (not x_100)) (?v_59 (not x_92)) (?v_73 (not x_84)) (?v_87 (not x_76)) (?v_101 (not x_68)) (?v_115 (not x_60)) (?v_129 (not x_52)) (?v_143 (not x_44)) (?v_4 (= x_135 x_41)) (?v_12 (= x_43 x_208)) (?v_18 (= x_41 x_37)) (?v_26 (= x_39 x_43)) (?v_32 (= x_37 x_33)) (?v_40 (= x_35 x_39)) (?v_46 (= x_33 x_29)) (?v_54 (= x_31 x_35)) (?v_60 (= x_29 x_25)) (?v_68 (= x_27 x_31)) (?v_74 (= x_25 x_21)) (?v_82 (= x_23 x_27)) (?v_88 (= x_21 x_17)) (?v_96 (= x_19 x_23)) (?v_102 (= x_17 x_13)) (?v_110 (= x_15 x_19)) (?v_116 (= x_13 x_9)) (?v_124 (= x_11 x_15)) (?v_130 (= x_9 x_5)) (?v_138 (= x_7 x_11)) (?v_144 (= x_5 x_1)) (?v_152 (= x_3 x_7))) (let ((?v_11 (+ ?v_6 x_146)) (?v_25 (+ ?v_20 x_146)) (?v_39 (+ ?v_34 x_146)) (?v_53 (+ ?v_48 x_146)) (?v_67 (+ ?v_62 x_146)) (?v_81 (+ ?v_76 x_146)) (?v_95 (+ ?v_90 x_146)) (?v_109 (+ ?v_104 x_146)) (?v_123 (+ ?v_118 x_146)) (?v_137 (+ ?v_132 x_146)) (?v_151 (+ ?v_146 x_146))) (and (and (and (and (and (and (and (and (and (and (and (and (and (and (and (and (and (and (and (and (and (and (and (and (and (and (and (and (and (and (and (and (and (and (and (and (and (and (and (and (and (and (and (and (and (and (and (and (and (and (and (and (and (and (and (and (and (and (and (and (and (and (and (and (and (and (and (and (and (and (and (and (and (and (and (and (> x_144 0) (> x_145 0)) (>= x_146 0)) (< x_146 x_144)) (< x_146 x_145)) (>= x_151 0)) (< x_151 x_144)) (< x_151 x_145)) (or (= x_40 x_41) (= x_42 x_43))) (or (= x_36 x_37) (= x_38 x_39))) (or (= x_32 x_33) (= x_34 x_35))) (or (= x_28 x_29) (= x_30 x_31))) (or (= x_24 x_25) (= x_26 x_27))) (or (= x_20 x_21) (= x_22 x_23))) (or (= x_16 x_17) (= x_18 x_19))) (or (= x_12 x_13) (= x_14 x_15))) (or (= x_8 x_9) (= x_10 x_11))) (or (= x_4 x_5) (= x_6 x_7))) (or (= x_0 x_1) (= x_2 x_3))) (<= (+ (+ (+ (+ (+ (+ (+ (ite (xor x_132 x_133) 1 0) (ite (xor x_133 x_134) 1 0)) (ite ?v_154 1 0)) (ite (xor x_135 x_136) 1 0)) (ite (xor x_136 x_137) 1 0)) (ite (xor x_137 (not x_132)) 1 0)) (ite (and (= x_132 x_133) (< x_138 x_139)) 1 0)) (ite (and (= x_135 x_136) (< x_140 x_141)) 1 0)) 1)) (<= (+ (+ (+ (+ (+ (+ (+ (ite (xor x_124 x_125) 1 0) (ite (xor x_125 x_40) 1 0)) (ite (xor x_40 x_41) 1 0)) (ite (xor x_41 x_126) 1 0)) (ite (xor x_126 x_127) 1 0)) (ite (xor x_127 ?v_3) 1 0)) (ite (and (= x_124 x_125) (< x_128 x_129)) 1 0)) (ite (and (= x_41 x_126) (< x_130 x_131)) 1 0)) 1)) (<= (+ (+ (+ (+ (+ (+ (+ (ite (xor x_116 x_117) 1 0) (ite (xor x_117 x_36) 1 0)) (ite (xor x_36 x_37) 1 0)) (ite (xor x_37 x_118) 1 0)) (ite (xor x_118 x_119) 1 0)) (ite (xor x_119 ?v_17) 1 0)) (ite (and (= x_116 x_117) (< x_120 x_121)) 1 0)) (ite (and (= x_37 x_118) (< x_122 x_123)) 1 0)) 1)) (<= (+ (+ (+ (+ (+ (+ (+ (ite (xor x_108 x_109) 1 0) (ite (xor x_109 x_32) 1 0)) (ite (xor x_32 x_33) 1 0)) (ite (xor x_33 x_110) 1 0)) (ite (xor x_110 x_111) 1 0)) (ite (xor x_111 ?v_31) 1 0)) (ite (and (= x_108 x_109) (< x_112 x_113)) 1 0)) (ite (and (= x_33 x_110) (< x_114 x_115)) 1 0)) 1)) (<= (+ (+ (+ (+ (+ (+ (+ (ite (xor x_100 x_101) 1 0) (ite (xor x_101 x_28) 1 0)) (ite (xor x_28 x_29) 1 0)) (ite (xor x_29 x_102) 1 0)) (ite (xor x_102 x_103) 1 0)) (ite (xor x_103 ?v_45) 1 0)) (ite (and (= x_100 x_101) (< x_104 x_105)) 1 0)) (ite (and (= x_29 x_102) (< x_106 x_107)) 1 0)) 1)) (<= (+ (+ (+ (+ (+ (+ (+ (ite (xor x_92 x_93) 1 0) (ite (xor x_93 x_24) 1 0)) (ite (xor x_24 x_25) 1 0)) (ite (xor x_25 x_94) 1 0)) (ite (xor x_94 x_95) 1 0)) (ite (xor x_95 ?v_59) 1 0)) (ite (and (= x_92 x_93) (< x_96 x_97)) 1 0)) (ite (and (= x_25 x_94) (< x_98 x_99)) 1 0)) 1)) (<= (+ (+ (+ (+ (+ (+ (+ (ite (xor x_84 x_85) 1 0) (ite (xor x_85 x_20) 1 0)) (ite (xor x_20 x_21) 1 0)) (ite (xor x_21 x_86) 1 0)) (ite (xor x_86 x_87) 1 0)) (ite (xor x_87 ?v_73) 1 0)) (ite (and (= x_84 x_85) (< x_88 x_89)) 1 0)) (ite (and (= x_21 x_86) (< x_90 x_91)) 1 0)) 1)) (<= (+ (+ (+ (+ (+ (+ (+ (ite (xor x_76 x_77) 1 0) (ite (xor x_77 x_16) 1 0)) (ite (xor x_16 x_17) 1 0)) (ite (xor x_17 x_78) 1 0)) (ite (xor x_78 x_79) 1 0)) (ite (xor x_79 ?v_87) 1 0)) (ite (and (= x_76 x_77) (< x_80 x_81)) 1 0)) (ite (and (= x_17 x_78) (< x_82 x_83)) 1 0)) 1)) (<= (+ (+ (+ (+ (+ (+ (+ (ite (xor x_68 x_69) 1 0) (ite (xor x_69 x_12) 1 0)) (ite (xor x_12 x_13) 1 0)) (ite (xor x_13 x_70) 1 0)) (ite (xor x_70 x_71) 1 0)) (ite (xor x_71 ?v_101) 1 0)) (ite (and (= x_68 x_69) (< x_72 x_73)) 1 0)) (ite (and (= x_13 x_70) (< x_74 x_75)) 1 0)) 1)) (<= (+ (+ (+ (+ (+ (+ (+ (ite (xor x_60 x_61) 1 0) (ite (xor x_61 x_8) 1 0)) (ite (xor x_8 x_9) 1 0)) (ite (xor x_9 x_62) 1 0)) (ite (xor x_62 x_63) 1 0)) (ite (xor x_63 ?v_115) 1 0)) (ite (and (= x_60 x_61) (< x_64 x_65)) 1 0)) (ite (and (= x_9 x_62) (< x_66 x_67)) 1 0)) 1)) (<= (+ (+ (+ (+ (+ (+ (+ (ite (xor x_52 x_53) 1 0) (ite (xor x_53 x_4) 1 0)) (ite (xor x_4 x_5) 1 0)) (ite (xor x_5 x_54) 1 0)) (ite (xor x_54 x_55) 1 0)) (ite (xor x_55 ?v_129) 1 0)) (ite (and (= x_52 x_53) (< x_56 x_57)) 1 0)) (ite (and (= x_5 x_54) (< x_58 x_59)) 1 0)) 1)) (<= (+ (+ (+ (+ (+ (+ (+ (ite (xor x_44 x_45) 1 0) (ite (xor x_45 x_0) 1 0)) (ite (xor x_0 x_1) 1 0)) (ite (xor x_1 x_46) 1 0)) (ite (xor x_46 x_47) 1 0)) (ite (xor x_47 ?v_143) 1 0)) (ite (and (= x_44 x_45) (< x_48 x_49)) 1 0)) (ite (and (= x_1 x_46) (< x_50 x_51)) 1 0)) 1)) (or (and (and (and (and (and (and (and (and (and (= x_209 0) (= x_134 x_125)) (= ?v_0 x_128)) (<= (+ ?v_0 x_144) x_138)) (or ?v_4 (= x_135 x_40))) (= x_136 x_126)) (= x_137 x_127)) (= x_140 x_130)) ?v_1) ?v_2) (and (and (and (and (and (and (and (and (and (= x_209 1) (= x_137 x_126)) (= ?v_0 x_130)) (<= (+ ?v_0 x_145) x_140)) (or (and (and (= x_210 0) ?v_1) ?v_2) (and (and (= x_210 1) (= x_124 x_127)) (= x_132 ?v_3)))) (= x_133 x_125)) (= x_134 x_40)) (= x_211 x_42)) (= x_138 x_128)) ?v_4))) (or (or (and (and (and (= x_212 0) ?v_10) (or (not (<= x_129 ?v_6)) (= x_133 x_124))) ?v_7) (and (and (and (= x_212 1) ?v_5) (xor x_124 x_132)) (= x_139 ?v_11))) (and (and (and (= x_212 2) ?v_5) (= x_124 x_132)) ?v_7))) (or (or (and (and (and (= x_213 0) (not ?v_8)) (or (not (<= x_131 ?v_0)) (= x_136 x_41))) ?v_9) (and (and (and (= x_213 1) ?v_8) (xor x_41 x_135)) (= x_141 (+ ?v_0 x_151)))) (and (and (and (= x_213 2) ?v_8) (= x_41 x_135)) ?v_9))) (or (or (and (and (and (= x_214 0) ?v_10) (or (not (<= x_201 ?v_6)) (= x_211 x_43))) ?v_13) (and (and (and (= x_214 1) ?v_5) (not ?v_12)) (= x_207 ?v_11))) (and (and (and (= x_214 2) ?v_5) ?v_12) ?v_13))) (or (and (and (and (and (and (and (and (and (and (= x_202 0) (= x_40 x_117)) (= ?v_14 x_120)) (<= (+ ?v_14 x_144) x_128)) (or ?v_18 (= x_41 x_36))) (= x_126 x_118)) (= x_127 x_119)) (= x_130 x_122)) ?v_15) ?v_16) (and (and (and (and (and (and (and (and (and (= x_202 1) (= x_127 x_118)) (= ?v_14 x_122)) (<= (+ ?v_14 x_145) x_130)) (or (and (and (= x_203 0) ?v_15) ?v_16) (and (and (= x_203 1) (= x_116 x_119)) (= x_124 ?v_17)))) (= x_125 x_117)) (= x_40 x_36)) (= x_42 x_38)) (= x_128 x_120)) ?v_18))) (or (or (and (and (and (= x_204 0) ?v_24) (or (not (<= x_121 ?v_20)) (= x_125 x_116))) ?v_21) (and (and (and (= x_204 1) ?v_19) (xor x_116 x_124)) (= x_129 ?v_25))) (and (and (and (= x_204 2) ?v_19) (= x_116 x_124)) ?v_21))) (or (or (and (and (and (= x_205 0) (not ?v_22)) (or (not (<= x_123 ?v_14)) (= x_126 x_37))) ?v_23) (and (and (and (= x_205 1) ?v_22) (xor x_37 x_41)) (= x_131 (+ ?v_14 x_151)))) (and (and (and (= x_205 2) ?v_22) (= x_37 x_41)) ?v_23))) (or (or (and (and (and (= x_206 0) ?v_24) (or (not (<= x_195 ?v_20)) (= x_42 x_39))) ?v_27) (and (and (and (= x_206 1) ?v_19) (not ?v_26)) (= x_201 ?v_25))) (and (and (and (= x_206 2) ?v_19) ?v_26) ?v_27))) (or (and (and (and (and (and (and (and (and (and (= x_196 0) (= x_36 x_109)) (= ?v_28 x_112)) (<= (+ ?v_28 x_144) x_120)) (or ?v_32 (= x_37 x_32))) (= x_118 x_110)) (= x_119 x_111)) (= x_122 x_114)) ?v_29) ?v_30) (and (and (and (and (and (and (and (and (and (= x_196 1) (= x_119 x_110)) (= ?v_28 x_114)) (<= (+ ?v_28 x_145) x_122)) (or (and (and (= x_197 0) ?v_29) ?v_30) (and (and (= x_197 1) (= x_108 x_111)) (= x_116 ?v_31)))) (= x_117 x_109)) (= x_36 x_32)) (= x_38 x_34)) (= x_120 x_112)) ?v_32))) (or (or (and (and (and (= x_198 0) ?v_38) (or (not (<= x_113 ?v_34)) (= x_117 x_108))) ?v_35) (and (and (and (= x_198 1) ?v_33) (xor x_108 x_116)) (= x_121 ?v_39))) (and (and (and (= x_198 2) ?v_33) (= x_108 x_116)) ?v_35))) (or (or (and (and (and (= x_199 0) (not ?v_36)) (or (not (<= x_115 ?v_28)) (= x_118 x_33))) ?v_37) (and (and (and (= x_199 1) ?v_36) (xor x_33 x_37)) (= x_123 (+ ?v_28 x_151)))) (and (and (and (= x_199 2) ?v_36) (= x_33 x_37)) ?v_37))) (or (or (and (and (and (= x_200 0) ?v_38) (or (not (<= x_189 ?v_34)) (= x_38 x_35))) ?v_41) (and (and (and (= x_200 1) ?v_33) (not ?v_40)) (= x_195 ?v_39))) (and (and (and (= x_200 2) ?v_33) ?v_40) ?v_41))) (or (and (and (and (and (and (and (and (and (and (= x_190 0) (= x_32 x_101)) (= ?v_42 x_104)) (<= (+ ?v_42 x_144) x_112)) (or ?v_46 (= x_33 x_28))) (= x_110 x_102)) (= x_111 x_103)) (= x_114 x_106)) ?v_43) ?v_44) (and (and (and (and (and (and (and (and (and (= x_190 1) (= x_111 x_102)) (= ?v_42 x_106)) (<= (+ ?v_42 x_145) x_114)) (or (and (and (= x_191 0) ?v_43) ?v_44) (and (and (= x_191 1) (= x_100 x_103)) (= x_108 ?v_45)))) (= x_109 x_101)) (= x_32 x_28)) (= x_34 x_30)) (= x_112 x_104)) ?v_46))) (or (or (and (and (and (= x_192 0) ?v_52) (or (not (<= x_105 ?v_48)) (= x_109 x_100))) ?v_49) (and (and (and (= x_192 1) ?v_47) (xor x_100 x_108)) (= x_113 ?v_53))) (and (and (and (= x_192 2) ?v_47) (= x_100 x_108)) ?v_49))) (or (or (and (and (and (= x_193 0) (not ?v_50)) (or (not (<= x_107 ?v_42)) (= x_110 x_29))) ?v_51) (and (and (and (= x_193 1) ?v_50) (xor x_29 x_33)) (= x_115 (+ ?v_42 x_151)))) (and (and (and (= x_193 2) ?v_50) (= x_29 x_33)) ?v_51))) (or (or (and (and (and (= x_194 0) ?v_52) (or (not (<= x_183 ?v_48)) (= x_34 x_31))) ?v_55) (and (and (and (= x_194 1) ?v_47) (not ?v_54)) (= x_189 ?v_53))) (and (and (and (= x_194 2) ?v_47) ?v_54) ?v_55))) (or (and (and (and (and (and (and (and (and (and (= x_184 0) (= x_28 x_93)) (= ?v_56 x_96)) (<= (+ ?v_56 x_144) x_104)) (or ?v_60 (= x_29 x_24))) (= x_102 x_94)) (= x_103 x_95)) (= x_106 x_98)) ?v_57) ?v_58) (and (and (and (and (and (and (and (and (and (= x_184 1) (= x_103 x_94)) (= ?v_56 x_98)) (<= (+ ?v_56 x_145) x_106)) (or (and (and (= x_185 0) ?v_57) ?v_58) (and (and (= x_185 1) (= x_92 x_95)) (= x_100 ?v_59)))) (= x_101 x_93)) (= x_28 x_24)) (= x_30 x_26)) (= x_104 x_96)) ?v_60))) (or (or (and (and (and (= x_186 0) ?v_66) (or (not (<= x_97 ?v_62)) (= x_101 x_92))) ?v_63) (and (and (and (= x_186 1) ?v_61) (xor x_92 x_100)) (= x_105 ?v_67))) (and (and (and (= x_186 2) ?v_61) (= x_92 x_100)) ?v_63))) (or (or (and (and (and (= x_187 0) (not ?v_64)) (or (not (<= x_99 ?v_56)) (= x_102 x_25))) ?v_65) (and (and (and (= x_187 1) ?v_64) (xor x_25 x_29)) (= x_107 (+ ?v_56 x_151)))) (and (and (and (= x_187 2) ?v_64) (= x_25 x_29)) ?v_65))) (or (or (and (and (and (= x_188 0) ?v_66) (or (not (<= x_177 ?v_62)) (= x_30 x_27))) ?v_69) (and (and (and (= x_188 1) ?v_61) (not ?v_68)) (= x_183 ?v_67))) (and (and (and (= x_188 2) ?v_61) ?v_68) ?v_69))) (or (and (and (and (and (and (and (and (and (and (= x_178 0) (= x_24 x_85)) (= ?v_70 x_88)) (<= (+ ?v_70 x_144) x_96)) (or ?v_74 (= x_25 x_20))) (= x_94 x_86)) (= x_95 x_87)) (= x_98 x_90)) ?v_71) ?v_72) (and (and (and (and (and (and (and (and (and (= x_178 1) (= x_95 x_86)) (= ?v_70 x_90)) (<= (+ ?v_70 x_145) x_98)) (or (and (and (= x_179 0) ?v_71) ?v_72) (and (and (= x_179 1) (= x_84 x_87)) (= x_92 ?v_73)))) (= x_93 x_85)) (= x_24 x_20)) (= x_26 x_22)) (= x_96 x_88)) ?v_74))) (or (or (and (and (and (= x_180 0) ?v_80) (or (not (<= x_89 ?v_76)) (= x_93 x_84))) ?v_77) (and (and (and (= x_180 1) ?v_75) (xor x_84 x_92)) (= x_97 ?v_81))) (and (and (and (= x_180 2) ?v_75) (= x_84 x_92)) ?v_77))) (or (or (and (and (and (= x_181 0) (not ?v_78)) (or (not (<= x_91 ?v_70)) (= x_94 x_21))) ?v_79) (and (and (and (= x_181 1) ?v_78) (xor x_21 x_25)) (= x_99 (+ ?v_70 x_151)))) (and (and (and (= x_181 2) ?v_78) (= x_21 x_25)) ?v_79))) (or (or (and (and (and (= x_182 0) ?v_80) (or (not (<= x_171 ?v_76)) (= x_26 x_23))) ?v_83) (and (and (and (= x_182 1) ?v_75) (not ?v_82)) (= x_177 ?v_81))) (and (and (and (= x_182 2) ?v_75) ?v_82) ?v_83))) (or (and (and (and (and (and (and (and (and (and (= x_172 0) (= x_20 x_77)) (= ?v_84 x_80)) (<= (+ ?v_84 x_144) x_88)) (or ?v_88 (= x_21 x_16))) (= x_86 x_78)) (= x_87 x_79)) (= x_90 x_82)) ?v_85) ?v_86) (and (and (and (and (and (and (and (and (and (= x_172 1) (= x_87 x_78)) (= ?v_84 x_82)) (<= (+ ?v_84 x_145) x_90)) (or (and (and (= x_173 0) ?v_85) ?v_86) (and (and (= x_173 1) (= x_76 x_79)) (= x_84 ?v_87)))) (= x_85 x_77)) (= x_20 x_16)) (= x_22 x_18)) (= x_88 x_80)) ?v_88))) (or (or (and (and (and (= x_174 0) ?v_94) (or (not (<= x_81 ?v_90)) (= x_85 x_76))) ?v_91) (and (and (and (= x_174 1) ?v_89) (xor x_76 x_84)) (= x_89 ?v_95))) (and (and (and (= x_174 2) ?v_89) (= x_76 x_84)) ?v_91))) (or (or (and (and (and (= x_175 0) (not ?v_92)) (or (not (<= x_83 ?v_84)) (= x_86 x_17))) ?v_93) (and (and (and (= x_175 1) ?v_92) (xor x_17 x_21)) (= x_91 (+ ?v_84 x_151)))) (and (and (and (= x_175 2) ?v_92) (= x_17 x_21)) ?v_93))) (or (or (and (and (and (= x_176 0) ?v_94) (or (not (<= x_165 ?v_90)) (= x_22 x_19))) ?v_97) (and (and (and (= x_176 1) ?v_89) (not ?v_96)) (= x_171 ?v_95))) (and (and (and (= x_176 2) ?v_89) ?v_96) ?v_97))) (or (and (and (and (and (and (and (and (and (and (= x_166 0) (= x_16 x_69)) (= ?v_98 x_72)) (<= (+ ?v_98 x_144) x_80)) (or ?v_102 (= x_17 x_12))) (= x_78 x_70)) (= x_79 x_71)) (= x_82 x_74)) ?v_99) ?v_100) (and (and (and (and (and (and (and (and (and (= x_166 1) (= x_79 x_70)) (= ?v_98 x_74)) (<= (+ ?v_98 x_145) x_82)) (or (and (and (= x_167 0) ?v_99) ?v_100) (and (and (= x_167 1) (= x_68 x_71)) (= x_76 ?v_101)))) (= x_77 x_69)) (= x_16 x_12)) (= x_18 x_14)) (= x_80 x_72)) ?v_102))) (or (or (and (and (and (= x_168 0) ?v_108) (or (not (<= x_73 ?v_104)) (= x_77 x_68))) ?v_105) (and (and (and (= x_168 1) ?v_103) (xor x_68 x_76)) (= x_81 ?v_109))) (and (and (and (= x_168 2) ?v_103) (= x_68 x_76)) ?v_105))) (or (or (and (and (and (= x_169 0) (not ?v_106)) (or (not (<= x_75 ?v_98)) (= x_78 x_13))) ?v_107) (and (and (and (= x_169 1) ?v_106) (xor x_13 x_17)) (= x_83 (+ ?v_98 x_151)))) (and (and (and (= x_169 2) ?v_106) (= x_13 x_17)) ?v_107))) (or (or (and (and (and (= x_170 0) ?v_108) (or (not (<= x_159 ?v_104)) (= x_18 x_15))) ?v_111) (and (and (and (= x_170 1) ?v_103) (not ?v_110)) (= x_165 ?v_109))) (and (and (and (= x_170 2) ?v_103) ?v_110) ?v_111))) (or (and (and (and (and (and (and (and (and (and (= x_160 0) (= x_12 x_61)) (= ?v_112 x_64)) (<= (+ ?v_112 x_144) x_72)) (or ?v_116 (= x_13 x_8))) (= x_70 x_62)) (= x_71 x_63)) (= x_74 x_66)) ?v_113) ?v_114) (and (and (and (and (and (and (and (and (and (= x_160 1) (= x_71 x_62)) (= ?v_112 x_66)) (<= (+ ?v_112 x_145) x_74)) (or (and (and (= x_161 0) ?v_113) ?v_114) (and (and (= x_161 1) (= x_60 x_63)) (= x_68 ?v_115)))) (= x_69 x_61)) (= x_12 x_8)) (= x_14 x_10)) (= x_72 x_64)) ?v_116))) (or (or (and (and (and (= x_162 0) ?v_122) (or (not (<= x_65 ?v_118)) (= x_69 x_60))) ?v_119) (and (and (and (= x_162 1) ?v_117) (xor x_60 x_68)) (= x_73 ?v_123))) (and (and (and (= x_162 2) ?v_117) (= x_60 x_68)) ?v_119))) (or (or (and (and (and (= x_163 0) (not ?v_120)) (or (not (<= x_67 ?v_112)) (= x_70 x_9))) ?v_121) (and (and (and (= x_163 1) ?v_120) (xor x_9 x_13)) (= x_75 (+ ?v_112 x_151)))) (and (and (and (= x_163 2) ?v_120) (= x_9 x_13)) ?v_121))) (or (or (and (and (and (= x_164 0) ?v_122) (or (not (<= x_153 ?v_118)) (= x_14 x_11))) ?v_125) (and (and (and (= x_164 1) ?v_117) (not ?v_124)) (= x_159 ?v_123))) (and (and (and (= x_164 2) ?v_117) ?v_124) ?v_125))) (or (and (and (and (and (and (and (and (and (and (= x_154 0) (= x_8 x_53)) (= ?v_126 x_56)) (<= (+ ?v_126 x_144) x_64)) (or ?v_130 (= x_9 x_4))) (= x_62 x_54)) (= x_63 x_55)) (= x_66 x_58)) ?v_127) ?v_128) (and (and (and (and (and (and (and (and (and (= x_154 1) (= x_63 x_54)) (= ?v_126 x_58)) (<= (+ ?v_126 x_145) x_66)) (or (and (and (= x_155 0) ?v_127) ?v_128) (and (and (= x_155 1) (= x_52 x_55)) (= x_60 ?v_129)))) (= x_61 x_53)) (= x_8 x_4)) (= x_10 x_6)) (= x_64 x_56)) ?v_130))) (or (or (and (and (and (= x_156 0) ?v_136) (or (not (<= x_57 ?v_132)) (= x_61 x_52))) ?v_133) (and (and (and (= x_156 1) ?v_131) (xor x_52 x_60)) (= x_65 ?v_137))) (and (and (and (= x_156 2) ?v_131) (= x_52 x_60)) ?v_133))) (or (or (and (and (and (= x_157 0) (not ?v_134)) (or (not (<= x_59 ?v_126)) (= x_62 x_5))) ?v_135) (and (and (and (= x_157 1) ?v_134) (xor x_5 x_9)) (= x_67 (+ ?v_126 x_151)))) (and (and (and (= x_157 2) ?v_134) (= x_5 x_9)) ?v_135))) (or (or (and (and (and (= x_158 0) ?v_136) (or (not (<= x_142 ?v_132)) (= x_10 x_7))) ?v_139) (and (and (and (= x_158 1) ?v_131) (not ?v_138)) (= x_153 ?v_137))) (and (and (and (= x_158 2) ?v_131) ?v_138) ?v_139))) (or (and (and (and (and (and (and (and (and (and (= x_147 0) (= x_4 x_45)) (= ?v_140 x_48)) (<= (+ ?v_140 x_144) x_56)) (or ?v_144 (= x_5 x_0))) (= x_54 x_46)) (= x_55 x_47)) (= x_58 x_50)) ?v_141) ?v_142) (and (and (and (and (and (and (and (and (and (= x_147 1) (= x_55 x_46)) (= ?v_140 x_50)) (<= (+ ?v_140 x_145) x_58)) (or (and (and (= x_148 0) ?v_141) ?v_142) (and (and (= x_148 1) (= x_44 x_47)) (= x_52 ?v_143)))) (= x_53 x_45)) (= x_4 x_0)) (= x_6 x_2)) (= x_56 x_48)) ?v_144))) (or (or (and (and (and (= x_149 0) ?v_150) (or (not (<= x_49 ?v_146)) (= x_53 x_44))) ?v_147) (and (and (and (= x_149 1) ?v_145) (xor x_44 x_52)) (= x_57 ?v_151))) (and (and (and (= x_149 2) ?v_145) (= x_44 x_52)) ?v_147))) (or (or (and (and (and (= x_150 0) (not ?v_148)) (or (not (<= x_51 ?v_140)) (= x_54 x_1))) ?v_149) (and (and (and (= x_150 1) ?v_148) (xor x_1 x_5)) (= x_59 (+ ?v_140 x_151)))) (and (and (and (= x_150 2) ?v_148) (= x_1 x_5)) ?v_149))) (or (or (and (and (and (= x_152 0) ?v_150) (or (not (<= x_143 ?v_146)) (= x_6 x_3))) ?v_153) (and (and (and (= x_152 1) ?v_145) (not ?v_152)) (= x_142 ?v_151))) (and (and (and (= x_152 2) ?v_145) ?v_152) ?v_153))) ?v_154) (not (= x_211 x_208)))))))))))))))))
(check-sat)
(exit)
